c cksystemsgroup.github.io/unicorn
c CNF contains a total of 894 clauses.
c CNF contains a total of 447 variables.
c CNF clauses cover 1 bad states.
c Variable name mapping (113 names):
c   1: input[bit=0]
c   2: input[bit=0]
c   8: input[bit=1]
c   9: input[bit=1]
c   16: input[bit=2]
c   17: input[bit=2]
c   24: input[bit=3]
c   25: input[bit=3]
c   32: input[bit=4]
c   33: input[bit=4]
c   40: input[bit=5]
c   41: input[bit=5]
c   48: input[bit=6]
c   49: input[bit=6]
c   56: input[bit=7]
c   57: input[bit=7]
c   64: input[bit=8]
c   65: input[bit=8]
c   72: input[bit=9]
c   73: input[bit=9]
c   80: input[bit=10]
c   81: input[bit=10]
c   88: input[bit=11]
c   89: input[bit=11]
c   96: input[bit=12]
c   97: input[bit=12]
c   104: input[bit=13]
c   105: input[bit=13]
c   112: input[bit=14]
c   113: input[bit=14]
c   120: input[bit=15]
c   121: input[bit=15]
c   128: input[bit=16]
c   129: input[bit=16]
c   136: input[bit=17]
c   137: input[bit=17]
c   144: input[bit=18]
c   145: input[bit=18]
c   152: input[bit=19]
c   153: input[bit=19]
c   160: input[bit=20]
c   161: input[bit=20]
c   168: input[bit=21]
c   169: input[bit=21]
c   176: input[bit=22]
c   177: input[bit=22]
c   184: input[bit=23]
c   185: input[bit=23]
c   192: input[bit=24]
c   193: input[bit=24]
c   200: input[bit=25]
c   201: input[bit=25]
c   208: input[bit=26]
c   209: input[bit=26]
c   216: input[bit=27]
c   217: input[bit=27]
c   224: input[bit=28]
c   225: input[bit=28]
c   232: input[bit=29]
c   233: input[bit=29]
c   240: input[bit=30]
c   241: input[bit=30]
c   248: input[bit=31]
c   249: input[bit=31]
c   256: input[bit=32]
c   257: input[bit=32]
c   264: input[bit=33]
c   265: input[bit=33]
c   272: input[bit=34]
c   273: input[bit=34]
c   280: input[bit=35]
c   281: input[bit=35]
c   288: input[bit=36]
c   289: input[bit=36]
c   296: input[bit=37]
c   297: input[bit=37]
c   304: input[bit=38]
c   305: input[bit=38]
c   312: input[bit=39]
c   313: input[bit=39]
c   320: input[bit=40]
c   321: input[bit=40]
c   328: input[bit=41]
c   329: input[bit=41]
c   336: input[bit=42]
c   337: input[bit=42]
c   344: input[bit=43]
c   345: input[bit=43]
c   352: input[bit=44]
c   353: input[bit=44]
c   360: input[bit=45]
c   361: input[bit=45]
c   368: input[bit=46]
c   369: input[bit=46]
c   376: input[bit=47]
c   377: input[bit=47]
c   384: input[bit=48]
c   385: input[bit=48]
c   392: input[bit=49]
c   393: input[bit=49]
c   400: input[bit=50]
c   401: input[bit=50]
c   408: input[bit=51]
c   409: input[bit=51]
c   416: input[bit=52]
c   417: input[bit=52]
c   424: input[bit=53]
c   425: input[bit=53]
c   432: input[bit=54]
c   433: input[bit=54]
c   440: input[bit=55]
c   441: input[bit=55]
c   447: ?
p cnf 447 894
-1 -2 -3 0
1 3 0
2 3 0
-1 -4 0
1 4 0
-2 -5 0
2 5 0
-4 -5 -6 0
4 6 0
5 6 0
-3 -6 -7 0
3 7 0
6 7 0
-8 -9 -10 0
8 10 0
9 10 0
-8 -11 0
8 11 0
-9 -12 0
9 12 0
-11 -12 -13 0
11 13 0
12 13 0
-10 -13 -14 0
10 14 0
13 14 0
-7 -14 15 0
7 -15 0
14 -15 0
-16 -17 -18 0
16 18 0
17 18 0
-16 -19 0
16 19 0
-17 -20 0
17 20 0
-19 -20 -21 0
19 21 0
20 21 0
-18 -21 -22 0
18 22 0
21 22 0
-15 -22 23 0
15 -23 0
22 -23 0
-24 -25 -26 0
24 26 0
25 26 0
-24 -27 0
24 27 0
-25 -28 0
25 28 0
-27 -28 -29 0
27 29 0
28 29 0
-26 -29 -30 0
26 30 0
29 30 0
-23 -30 31 0
23 -31 0
30 -31 0
-32 -33 -34 0
32 34 0
33 34 0
-32 -35 0
32 35 0
-33 -36 0
33 36 0
-35 -36 -37 0
35 37 0
36 37 0
-34 -37 -38 0
34 38 0
37 38 0
-31 -38 39 0
31 -39 0
38 -39 0
-40 -41 -42 0
40 42 0
41 42 0
-40 -43 0
40 43 0
-41 -44 0
41 44 0
-43 -44 -45 0
43 45 0
44 45 0
-42 -45 -46 0
42 46 0
45 46 0
-39 -46 47 0
39 -47 0
46 -47 0
-48 -49 -50 0
48 50 0
49 50 0
-48 -51 0
48 51 0
-49 -52 0
49 52 0
-51 -52 -53 0
51 53 0
52 53 0
-50 -53 -54 0
50 54 0
53 54 0
-47 -54 55 0
47 -55 0
54 -55 0
-56 -57 -58 0
56 58 0
57 58 0
-56 -59 0
56 59 0
-57 -60 0
57 60 0
-59 -60 -61 0
59 61 0
60 61 0
-58 -61 -62 0
58 62 0
61 62 0
-55 -62 63 0
55 -63 0
62 -63 0
-64 -65 -66 0
64 66 0
65 66 0
-64 -67 0
64 67 0
-65 -68 0
65 68 0
-67 -68 -69 0
67 69 0
68 69 0
-66 -69 -70 0
66 70 0
69 70 0
-63 -70 71 0
63 -71 0
70 -71 0
-72 -73 -74 0
72 74 0
73 74 0
-72 -75 0
72 75 0
-73 -76 0
73 76 0
-75 -76 -77 0
75 77 0
76 77 0
-74 -77 -78 0
74 78 0
77 78 0
-71 -78 79 0
71 -79 0
78 -79 0
-80 -81 -82 0
80 82 0
81 82 0
-80 -83 0
80 83 0
-81 -84 0
81 84 0
-83 -84 -85 0
83 85 0
84 85 0
-82 -85 -86 0
82 86 0
85 86 0
-79 -86 87 0
79 -87 0
86 -87 0
-88 -89 -90 0
88 90 0
89 90 0
-88 -91 0
88 91 0
-89 -92 0
89 92 0
-91 -92 -93 0
91 93 0
92 93 0
-90 -93 -94 0
90 94 0
93 94 0
-87 -94 95 0
87 -95 0
94 -95 0
-96 -97 -98 0
96 98 0
97 98 0
-96 -99 0
96 99 0
-97 -100 0
97 100 0
-99 -100 -101 0
99 101 0
100 101 0
-98 -101 -102 0
98 102 0
101 102 0
-95 -102 103 0
95 -103 0
102 -103 0
-104 -105 -106 0
104 106 0
105 106 0
-104 -107 0
104 107 0
-105 -108 0
105 108 0
-107 -108 -109 0
107 109 0
108 109 0
-106 -109 -110 0
106 110 0
109 110 0
-103 -110 111 0
103 -111 0
110 -111 0
-112 -113 -114 0
112 114 0
113 114 0
-112 -115 0
112 115 0
-113 -116 0
113 116 0
-115 -116 -117 0
115 117 0
116 117 0
-114 -117 -118 0
114 118 0
117 118 0
-111 -118 119 0
111 -119 0
118 -119 0
-120 -121 -122 0
120 122 0
121 122 0
-120 -123 0
120 123 0
-121 -124 0
121 124 0
-123 -124 -125 0
123 125 0
124 125 0
-122 -125 -126 0
122 126 0
125 126 0
-119 -126 127 0
119 -127 0
126 -127 0
-128 -129 -130 0
128 130 0
129 130 0
-128 -131 0
128 131 0
-129 -132 0
129 132 0
-131 -132 -133 0
131 133 0
132 133 0
-130 -133 -134 0
130 134 0
133 134 0
-127 -134 135 0
127 -135 0
134 -135 0
-136 -137 -138 0
136 138 0
137 138 0
-136 -139 0
136 139 0
-137 -140 0
137 140 0
-139 -140 -141 0
139 141 0
140 141 0
-138 -141 -142 0
138 142 0
141 142 0
-135 -142 143 0
135 -143 0
142 -143 0
-144 -145 -146 0
144 146 0
145 146 0
-144 -147 0
144 147 0
-145 -148 0
145 148 0
-147 -148 -149 0
147 149 0
148 149 0
-146 -149 -150 0
146 150 0
149 150 0
-143 -150 151 0
143 -151 0
150 -151 0
-152 -153 -154 0
152 154 0
153 154 0
-152 -155 0
152 155 0
-153 -156 0
153 156 0
-155 -156 -157 0
155 157 0
156 157 0
-154 -157 -158 0
154 158 0
157 158 0
-151 -158 159 0
151 -159 0
158 -159 0
-160 -161 -162 0
160 162 0
161 162 0
-160 -163 0
160 163 0
-161 -164 0
161 164 0
-163 -164 -165 0
163 165 0
164 165 0
-162 -165 -166 0
162 166 0
165 166 0
-159 -166 167 0
159 -167 0
166 -167 0
-168 -169 -170 0
168 170 0
169 170 0
-168 -171 0
168 171 0
-169 -172 0
169 172 0
-171 -172 -173 0
171 173 0
172 173 0
-170 -173 -174 0
170 174 0
173 174 0
-167 -174 175 0
167 -175 0
174 -175 0
-176 -177 -178 0
176 178 0
177 178 0
-176 -179 0
176 179 0
-177 -180 0
177 180 0
-179 -180 -181 0
179 181 0
180 181 0
-178 -181 -182 0
178 182 0
181 182 0
-175 -182 183 0
175 -183 0
182 -183 0
-184 -185 -186 0
184 186 0
185 186 0
-184 -187 0
184 187 0
-185 -188 0
185 188 0
-187 -188 -189 0
187 189 0
188 189 0
-186 -189 -190 0
186 190 0
189 190 0
-183 -190 191 0
183 -191 0
190 -191 0
-192 -193 -194 0
192 194 0
193 194 0
-192 -195 0
192 195 0
-193 -196 0
193 196 0
-195 -196 -197 0
195 197 0
196 197 0
-194 -197 -198 0
194 198 0
197 198 0
-191 -198 199 0
191 -199 0
198 -199 0
-200 -201 -202 0
200 202 0
201 202 0
-200 -203 0
200 203 0
-201 -204 0
201 204 0
-203 -204 -205 0
203 205 0
204 205 0
-202 -205 -206 0
202 206 0
205 206 0
-199 -206 207 0
199 -207 0
206 -207 0
-208 -209 -210 0
208 210 0
209 210 0
-208 -211 0
208 211 0
-209 -212 0
209 212 0
-211 -212 -213 0
211 213 0
212 213 0
-210 -213 -214 0
210 214 0
213 214 0
-207 -214 215 0
207 -215 0
214 -215 0
-216 -217 -218 0
216 218 0
217 218 0
-216 -219 0
216 219 0
-217 -220 0
217 220 0
-219 -220 -221 0
219 221 0
220 221 0
-218 -221 -222 0
218 222 0
221 222 0
-215 -222 223 0
215 -223 0
222 -223 0
-224 -225 -226 0
224 226 0
225 226 0
-224 -227 0
224 227 0
-225 -228 0
225 228 0
-227 -228 -229 0
227 229 0
228 229 0
-226 -229 -230 0
226 230 0
229 230 0
-223 -230 231 0
223 -231 0
230 -231 0
-232 -233 -234 0
232 234 0
233 234 0
-232 -235 0
232 235 0
-233 -236 0
233 236 0
-235 -236 -237 0
235 237 0
236 237 0
-234 -237 -238 0
234 238 0
237 238 0
-231 -238 239 0
231 -239 0
238 -239 0
-240 -241 -242 0
240 242 0
241 242 0
-240 -243 0
240 243 0
-241 -244 0
241 244 0
-243 -244 -245 0
243 245 0
244 245 0
-242 -245 -246 0
242 246 0
245 246 0
-239 -246 247 0
239 -247 0
246 -247 0
-248 -249 -250 0
248 250 0
249 250 0
-248 -251 0
248 251 0
-249 -252 0
249 252 0
-251 -252 -253 0
251 253 0
252 253 0
-250 -253 -254 0
250 254 0
253 254 0
-247 -254 255 0
247 -255 0
254 -255 0
-256 -257 -258 0
256 258 0
257 258 0
-256 -259 0
256 259 0
-257 -260 0
257 260 0
-259 -260 -261 0
259 261 0
260 261 0
-258 -261 -262 0
258 262 0
261 262 0
-255 -262 263 0
255 -263 0
262 -263 0
-264 -265 -266 0
264 266 0
265 266 0
-264 -267 0
264 267 0
-265 -268 0
265 268 0
-267 -268 -269 0
267 269 0
268 269 0
-266 -269 -270 0
266 270 0
269 270 0
-263 -270 271 0
263 -271 0
270 -271 0
-272 -273 -274 0
272 274 0
273 274 0
-272 -275 0
272 275 0
-273 -276 0
273 276 0
-275 -276 -277 0
275 277 0
276 277 0
-274 -277 -278 0
274 278 0
277 278 0
-271 -278 279 0
271 -279 0
278 -279 0
-280 -281 -282 0
280 282 0
281 282 0
-280 -283 0
280 283 0
-281 -284 0
281 284 0
-283 -284 -285 0
283 285 0
284 285 0
-282 -285 -286 0
282 286 0
285 286 0
-279 -286 287 0
279 -287 0
286 -287 0
-288 -289 -290 0
288 290 0
289 290 0
-288 -291 0
288 291 0
-289 -292 0
289 292 0
-291 -292 -293 0
291 293 0
292 293 0
-290 -293 -294 0
290 294 0
293 294 0
-287 -294 295 0
287 -295 0
294 -295 0
-296 -297 -298 0
296 298 0
297 298 0
-296 -299 0
296 299 0
-297 -300 0
297 300 0
-299 -300 -301 0
299 301 0
300 301 0
-298 -301 -302 0
298 302 0
301 302 0
-295 -302 303 0
295 -303 0
302 -303 0
-304 -305 -306 0
304 306 0
305 306 0
-304 -307 0
304 307 0
-305 -308 0
305 308 0
-307 -308 -309 0
307 309 0
308 309 0
-306 -309 -310 0
306 310 0
309 310 0
-303 -310 311 0
303 -311 0
310 -311 0
-312 -313 -314 0
312 314 0
313 314 0
-312 -315 0
312 315 0
-313 -316 0
313 316 0
-315 -316 -317 0
315 317 0
316 317 0
-314 -317 -318 0
314 318 0
317 318 0
-311 -318 319 0
311 -319 0
318 -319 0
-320 -321 -322 0
320 322 0
321 322 0
-320 -323 0
320 323 0
-321 -324 0
321 324 0
-323 -324 -325 0
323 325 0
324 325 0
-322 -325 -326 0
322 326 0
325 326 0
-319 -326 327 0
319 -327 0
326 -327 0
-328 -329 -330 0
328 330 0
329 330 0
-328 -331 0
328 331 0
-329 -332 0
329 332 0
-331 -332 -333 0
331 333 0
332 333 0
-330 -333 -334 0
330 334 0
333 334 0
-327 -334 335 0
327 -335 0
334 -335 0
-336 -337 -338 0
336 338 0
337 338 0
-336 -339 0
336 339 0
-337 -340 0
337 340 0
-339 -340 -341 0
339 341 0
340 341 0
-338 -341 -342 0
338 342 0
341 342 0
-335 -342 343 0
335 -343 0
342 -343 0
-344 -345 -346 0
344 346 0
345 346 0
-344 -347 0
344 347 0
-345 -348 0
345 348 0
-347 -348 -349 0
347 349 0
348 349 0
-346 -349 -350 0
346 350 0
349 350 0
-343 -350 351 0
343 -351 0
350 -351 0
-352 -353 -354 0
352 354 0
353 354 0
-352 -355 0
352 355 0
-353 -356 0
353 356 0
-355 -356 -357 0
355 357 0
356 357 0
-354 -357 -358 0
354 358 0
357 358 0
-351 -358 359 0
351 -359 0
358 -359 0
-360 -361 -362 0
360 362 0
361 362 0
-360 -363 0
360 363 0
-361 -364 0
361 364 0
-363 -364 -365 0
363 365 0
364 365 0
-362 -365 -366 0
362 366 0
365 366 0
-359 -366 367 0
359 -367 0
366 -367 0
-368 -369 -370 0
368 370 0
369 370 0
-368 -371 0
368 371 0
-369 -372 0
369 372 0
-371 -372 -373 0
371 373 0
372 373 0
-370 -373 -374 0
370 374 0
373 374 0
-367 -374 375 0
367 -375 0
374 -375 0
-376 -377 -378 0
376 378 0
377 378 0
-376 -379 0
376 379 0
-377 -380 0
377 380 0
-379 -380 -381 0
379 381 0
380 381 0
-378 -381 -382 0
378 382 0
381 382 0
-375 -382 383 0
375 -383 0
382 -383 0
-384 -385 -386 0
384 386 0
385 386 0
-384 -387 0
384 387 0
-385 -388 0
385 388 0
-387 -388 -389 0
387 389 0
388 389 0
-386 -389 -390 0
386 390 0
389 390 0
-383 -390 391 0
383 -391 0
390 -391 0
-392 -393 -394 0
392 394 0
393 394 0
-392 -395 0
392 395 0
-393 -396 0
393 396 0
-395 -396 -397 0
395 397 0
396 397 0
-394 -397 -398 0
394 398 0
397 398 0
-391 -398 399 0
391 -399 0
398 -399 0
-400 -401 -402 0
400 402 0
401 402 0
-400 -403 0
400 403 0
-401 -404 0
401 404 0
-403 -404 -405 0
403 405 0
404 405 0
-402 -405 -406 0
402 406 0
405 406 0
-399 -406 407 0
399 -407 0
406 -407 0
-408 -409 -410 0
408 410 0
409 410 0
-408 -411 0
408 411 0
-409 -412 0
409 412 0
-411 -412 -413 0
411 413 0
412 413 0
-410 -413 -414 0
410 414 0
413 414 0
-407 -414 415 0
407 -415 0
414 -415 0
-416 -417 -418 0
416 418 0
417 418 0
-416 -419 0
416 419 0
-417 -420 0
417 420 0
-419 -420 -421 0
419 421 0
420 421 0
-418 -421 -422 0
418 422 0
421 422 0
-415 -422 423 0
415 -423 0
422 -423 0
-424 -425 -426 0
424 426 0
425 426 0
-424 -427 0
424 427 0
-425 -428 0
425 428 0
-427 -428 -429 0
427 429 0
428 429 0
-426 -429 -430 0
426 430 0
429 430 0
-423 -430 431 0
423 -431 0
430 -431 0
-432 -433 -434 0
432 434 0
433 434 0
-432 -435 0
432 435 0
-433 -436 0
433 436 0
-435 -436 -437 0
435 437 0
436 437 0
-434 -437 -438 0
434 438 0
437 438 0
-431 -438 439 0
431 -439 0
438 -439 0
-440 -441 -442 0
440 442 0
441 442 0
-440 -443 0
440 443 0
-441 -444 0
441 444 0
-443 -444 -445 0
443 445 0
444 445 0
-442 -445 -446 0
442 446 0
445 446 0
-439 -446 447 0
439 -447 0
446 -447 0
447 0
